knapPI_9_1000_1000_445
n 1000
c 766295
z 471157
time 0.6
1,447,1001,1
2,390,1000,1
3,17,1000,1
4,98,1001,1
5,375,1000,1
6,656,1000,1
7,687,1000,1
8,557,1001,1
9,184,1001,1
10,739,1000,1
11,507,1000,1
12,554,1000,1
13,625,1001,1
14,451,1001,1
15,105,1001,1
16,711,1000,1
17,560,1000,1
18,442,1000,1
19,515,1000,1
20,461,1000,1
21,281,1001,1
22,934,1000,1
23,645,1000,1
24,574,1001,1
25,217,1000,1
26,939,1001,1
27,534,1001,1
28,852,1001,1
29,583,1001,1
30,666,1000,1
31,753,1001,1
32,156,1001,1
33,541,1001,1
34,752,1001,1
35,850,1000,1
36,457,1001,1
37,978,1001,1
38,447,1001,1
39,134,1001,1
40,875,1001,1
41,470,1000,1
42,921,1000,1
43,909,1000,1
44,68,1000,1
45,230,1001,1
46,379,1001,1
47,72,1000,1
48,989,1000,1
49,640,1000,1
50,403,1001,1
51,537,1000,1
52,293,1001,1
53,949,1001,1
54,574,1001,1
55,95,1000,1
56,312,1001,1
57,965,1001,1
58,332,1001,1
59,603,1000,1
60,133,1000,1
61,11,1000,1
62,48,1000,1
63,181,1000,1
64,101,1001,1
65,890,1001,1
66,115,1001,1
67,175,1000,1
68,416,1001,1
69,257,1001,1
70,708,1000,1
71,615,1000,1
72,940,1000,1
73,345,1001,1
74,156,1000,1
75,14,1001,1
76,355,1001,1
77,386,1001,1
78,735,1000,1
79,173,1001,1
80,453,1001,1
81,799,1000,1
82,881,1001,1
83,564,1001,1
84,729,1001,1
85,800,1001,1
86,355,1001,1
87,878,1000,1
88,964,1000,1
89,104,1001,1
90,525,1001,1
91,439,1001,1
92,923,1000,1
93,553,1001,1
94,537,1001,1
95,375,1001,1
96,901,1001,1
97,773,1001,1
98,610,1001,1
99,399,1001,1
100,739,1000,1
101,666,1001,1
102,584,1001,1
103,38,1000,1
104,392,1001,1
105,632,1000,1
106,692,1001,1
107,918,1000,1
108,912,1001,1
109,650,1000,1
110,605,1001,1
111,960,1001,1
112,551,1000,1
113,9,1001,1
114,517,1000,1
115,897,1001,1
116,227,1000,1
117,288,1001,1
118,721,1001,1
119,419,1001,1
120,442,1000,1
121,495,1001,1
122,611,1001,1
123,417,1000,1
124,987,1000,1
125,993,1001,1
126,278,1001,1
127,476,1001,1
128,872,1000,1
129,606,1000,1
130,940,1000,1
131,31,1000,1
132,355,1001,1
133,492,1000,1
134,832,1001,1
135,597,1000,1
136,308,1000,1
137,693,1000,1
138,451,1001,1
139,964,1001,1
140,658,1000,1
141,509,1001,1
142,382,1001,1
143,670,1001,1
144,358,1000,1
145,874,1000,1
146,120,1000,1
147,585,1001,1
148,768,1000,1
149,480,1000,1
150,801,1000,1
151,510,1000,1
152,785,1000,1
153,544,1000,1
154,974,1001,1
155,127,1000,1
156,729,1001,1
157,199,1001,1
158,976,1001,1
159,835,1001,1
160,892,1000,1
161,782,1001,1
162,983,1000,1
163,216,1001,1
164,871,1001,1
165,978,1001,1
166,361,1000,1
167,666,1001,1
168,672,1000,1
169,58,1000,1
170,762,1000,1
171,810,1000,1
172,822,1000,1
173,359,1000,1
174,14,1000,1
175,786,1000,1
176,658,1000,1
177,590,1000,1
178,968,1000,1
179,736,1001,1
180,140,1001,1
181,699,1000,1
182,194,1001,1
183,1000,1000,1
184,969,1001,1
185,827,1001,1
186,476,1000,1
187,145,1000,1
188,762,1001,1
189,50,1001,1
190,501,1000,1
191,640,1001,1
192,154,1000,1
193,170,1001,1
194,310,1001,1
195,124,1000,1
196,593,1001,1
197,136,1000,1
198,524,1001,1
199,192,1001,1
200,422,1000,1
201,275,1001,1
202,416,1000,1
203,359,1001,1
204,679,1001,1
205,147,1001,1
206,710,1001,1
207,108,1001,1
208,907,1000,1
209,838,1000,1
210,211,1001,1
211,591,1000,1
212,749,1001,1
213,567,1000,1
214,417,1001,1
215,449,1001,1
216,722,1001,1
217,235,1001,1
218,860,1001,1
219,830,1001,1
220,722,1000,1
221,243,1000,1
222,559,1001,1
223,320,1000,1
224,913,1000,1
225,424,1001,1
226,995,1000,1
227,177,1000,1
228,769,1001,1
229,559,1001,1
230,603,1001,1
231,571,1001,1
232,968,1001,1
233,125,1000,1
234,912,1000,1
235,944,1001,1
236,762,1001,1
237,308,1000,1
238,97,1001,1
239,38,1001,1
240,354,1000,1
241,908,1001,1
242,356,1001,1
243,495,1000,1
244,649,1001,1
245,383,1001,1
246,718,1000,1
247,923,1000,1
248,882,1001,1
249,735,1001,1
250,915,1001,1
251,661,1000,1
252,413,1000,1
253,289,1001,1
254,95,1001,1
255,568,1001,1
256,638,1001,1
257,291,1001,1
258,668,1000,1
259,694,1000,1
260,281,1000,1
261,420,1000,1
262,26,1001,1
263,258,1000,1
264,545,1001,1
265,661,1001,1
266,464,1000,1
267,373,1001,1
268,51,1001,1
269,384,1000,1
270,883,1000,1
271,72,1000,1
272,695,1001,1
273,912,1000,1
274,367,1001,1
275,196,1000,1
276,314,1000,1
277,728,1001,1
278,631,1000,1
279,464,1000,1
280,610,1000,1
281,590,1000,1
282,409,1000,1
283,86,1001,1
284,66,1001,1
285,125,1001,1
286,289,1000,1
287,409,1001,1
288,181,1001,1
289,188,1000,1
290,166,1000,1
291,379,1001,1
292,248,1001,1
293,437,1000,1
294,122,1000,1
295,913,1001,1
296,587,1000,1
297,625,1000,1
298,649,1000,1
299,236,1001,1
300,932,1000,1
301,404,1001,1
302,549,1000,1
303,721,1001,1
304,484,1000,1
305,306,1001,1
306,709,1000,1
307,24,1000,1
308,887,1001,1
309,650,1001,1
310,341,1001,1
311,772,1001,1
312,73,1000,1
313,442,1000,1
314,420,1000,1
315,982,1000,1
316,526,1000,1
317,608,1000,1
318,599,1000,1
319,758,1001,1
320,6,1000,1
321,173,1001,1
322,578,1000,1
323,587,1000,1
324,272,1001,1
325,606,1001,1
326,689,1000,1
327,855,1000,1
328,120,1000,1
329,687,1001,1
330,626,1001,1
331,36,1000,1
332,263,1001,1
333,837,1000,1
334,376,1000,1
335,612,1001,1
336,839,1001,1
337,69,1000,1
338,108,1000,1
339,60,1001,1
340,383,1000,1
341,105,1001,1
342,247,1000,1
343,837,1000,1
344,152,1001,1
345,481,1001,1
346,242,1001,1
347,874,1001,1
348,552,1001,1
349,734,1001,1
350,607,1000,1
351,36,1000,1
352,424,1000,1
353,314,1000,1
354,871,1000,1
355,980,1001,1
356,269,1000,1
357,917,1001,1
358,319,1000,1
359,300,1000,1
360,678,1001,1
361,204,1000,1
362,926,1001,1
363,569,1001,1
364,941,1001,1
365,813,1000,1
366,954,1001,1
367,832,1000,1
368,409,1001,1
369,340,1001,1
370,790,1000,1
371,109,1001,1
372,71,1001,1
373,348,1000,1
374,628,1001,1
375,411,1000,1
376,123,1001,1
377,935,1001,1
378,244,1000,1
379,610,1000,1
380,944,1000,1
381,316,1001,1
382,108,1000,1
383,531,1001,1
384,487,1001,1
385,827,1000,1
386,112,1000,1
387,702,1000,1
388,195,1000,1
389,931,1000,1
390,444,1001,1
391,403,1000,1
392,189,1000,1
393,737,1001,1
394,307,1000,1
395,770,1001,1
396,756,1001,1
397,451,1001,1
398,438,1000,1
399,266,1001,1
400,810,1000,1
401,876,1000,1
402,118,1000,1
403,996,1001,1
404,605,1001,1
405,472,1001,1
406,899,1000,1
407,49,1001,1
408,120,1000,1
409,331,1001,1
410,759,1000,1
411,442,1000,1
412,809,1001,1
413,250,1001,1
414,810,1001,1
415,879,1000,1
416,169,1001,1
417,260,1001,1
418,761,1001,1
419,377,1001,1
420,399,1001,1
421,225,1001,1
422,277,1000,1
423,43,1000,1
424,631,1000,1
425,267,1000,1
426,76,1000,1
427,133,1001,1
428,993,1000,1
429,126,1001,1
430,701,1000,1
431,196,1001,1
432,681,1000,1
433,548,1001,1
434,846,1000,1
435,752,1001,1
436,396,1000,1
437,394,1001,1
438,8,1000,1
439,333,1001,1
440,87,1000,1
441,801,1000,1
442,684,1000,1
443,506,1001,1
444,297,1001,1
445,378,1000,1
446,362,1001,1
447,73,1001,1
448,365,1001,1
449,243,1001,1
450,830,1001,1
451,800,1001,1
452,882,1001,1
453,930,1000,1
454,95,1000,1
455,399,1001,1
456,245,1000,1
457,974,1001,1
458,379,1001,1
459,668,1000,1
460,212,1001,1
461,905,1001,1
462,759,1000,1
463,150,1001,1
464,535,1000,1
465,108,1000,1
466,49,1000,1
467,461,1001,1
468,60,1001,1
469,358,1001,1
470,484,1000,1
471,343,1001,1
472,395,1001,1
473,868,1000,1
474,915,1000,1
475,77,1000,1
476,573,1001,1
477,713,1001,1
478,463,1000,1
479,16,1000,1
480,781,1000,1
481,489,1000,1
482,643,1000,1
483,779,1001,1
484,480,1001,1
485,307,1001,1
486,167,1001,1
487,3,1001,1
488,729,1001,1
489,586,1000,1
490,772,1000,1
491,579,1000,1
492,645,1001,1
493,399,1000,1
494,392,1000,1
495,59,1000,1
496,366,1001,1
497,239,1000,1
498,985,1001,1
499,967,1001,1
500,302,1001,1
501,265,1000,1
502,78,1000,1
503,646,1001,1
504,363,1000,1
505,497,1001,1
506,760,1000,1
507,169,1001,1
508,66,1000,1
509,580,1001,1
510,422,1000,1
511,573,1000,1
512,28,1000,1
513,622,1001,1
514,272,1000,1
515,697,1000,1
516,400,1001,1
517,916,1001,1
518,159,1001,1
519,192,1000,1
520,25,1000,1
521,999,1001,1
522,635,1000,1
523,992,1000,1
524,780,1000,1
525,781,1001,1
526,165,1001,1
527,85,1000,1
528,796,1001,1
529,361,1001,1
530,472,1000,1
531,764,1000,1
532,761,1000,1
533,595,1001,1
534,498,1000,1
535,703,1000,1
536,14,1001,1
537,995,1000,1
538,150,1001,1
539,827,1000,1
540,285,1000,1
541,725,1000,1
542,267,1000,1
543,719,1001,1
544,856,1000,1
545,718,1001,1
546,31,1001,1
547,747,1001,1
548,702,1001,1
549,611,1000,1
550,518,1001,1
551,23,1000,1
552,214,1001,1
553,454,1001,1
554,831,1001,1
555,634,1000,1
556,579,1000,1
557,888,1001,1
558,61,1001,1
559,607,1001,1
560,691,1001,1
561,252,1000,1
562,181,1000,1
563,736,1000,1
564,974,1000,1
565,469,1001,1
566,776,1000,1
567,549,1001,1
568,36,1000,1
569,743,1000,1
570,425,1000,1
571,415,1001,1
572,953,1001,1
573,858,1001,1
574,781,1000,1
575,770,1001,1
576,266,1000,1
577,666,1001,1
578,350,1000,1
579,550,1000,1
580,819,1001,1
581,140,1001,1
582,647,1000,1
583,169,1001,1
584,826,1000,1
585,341,1001,1
586,656,1001,1
587,54,1000,1
588,638,1000,1
589,247,1001,1
590,276,1001,1
591,197,1001,1
592,504,1000,1
593,407,1001,1
594,314,1001,1
595,959,1000,1
596,540,1001,1
597,759,1001,1
598,916,1001,1
599,774,1001,1
600,680,1000,1
601,397,1000,1
602,368,1000,1
603,429,1000,1
604,67,1000,1
605,401,1001,1
606,338,1000,1
607,104,1000,1
608,296,1000,1
609,361,1001,1
610,566,1001,1
611,296,1001,1
612,446,1000,1
613,385,1000,1
614,965,1000,1
615,318,1000,1
616,35,1001,1
617,360,1000,1
618,829,1000,1
619,702,1001,1
620,674,1001,1
621,635,1001,1
622,824,1001,1
623,313,1000,1
624,40,1001,1
625,312,1001,1
626,474,1001,1
627,987,1000,1
628,176,1000,1
629,389,1000,1
630,110,1000,1
631,793,1001,1
632,832,1000,1
633,310,1000,1
634,360,1001,1
635,591,1000,1
636,148,1001,1
637,504,1001,1
638,376,1000,1
639,647,1000,1
640,855,1000,1
641,480,1000,1
642,707,1000,1
643,521,1000,1
644,318,1000,1
645,574,1001,1
646,257,1001,1
647,38,1000,1
648,47,1000,1
649,380,1000,1
650,673,1001,1
651,921,1000,1
652,852,1000,1
653,559,1000,1
654,7,1001,1
655,799,1001,1
656,668,1001,1
657,891,1000,1
658,430,1001,1
659,197,1001,1
660,747,1001,1
661,430,1001,1
662,154,1000,1
663,416,1001,1
664,269,1000,1
665,568,1000,1
666,260,1000,1
667,700,1000,1
668,487,1000,1
669,724,1001,1
670,238,1000,1
671,483,1000,1
672,865,1000,1
673,488,1001,1
674,749,1001,1
675,489,1000,1
676,52,1001,1
677,706,1000,1
678,169,1001,1
679,91,1000,1
680,32,1001,1
681,469,1001,1
682,334,1000,1
683,793,1001,1
684,476,1001,1
685,591,1000,1
686,11,1000,1
687,647,1001,1
688,642,1001,1
689,35,1001,1
690,4,1001,1
691,634,1001,1
692,539,1001,1
693,903,1001,1
694,810,1000,1
695,757,1001,1
696,285,1000,1
697,603,1000,1
698,761,1000,1
699,473,1001,1
700,610,1000,1
701,525,1000,1
702,201,1000,1
703,217,1000,1
704,918,1000,1
705,671,1001,1
706,153,1000,1
707,702,1000,1
708,240,1000,1
709,75,1001,1
710,90,1000,1
711,353,1001,1
712,91,1001,1
713,957,1001,1
714,34,1001,1
715,976,1000,1
716,531,1001,1
717,829,1001,1
718,321,1001,1
719,506,1001,1
720,97,1001,1
721,298,1001,1
722,304,1001,1
723,224,1000,1
724,476,1000,1
725,406,1001,1
726,867,1000,1
727,421,1001,1
728,453,1000,1
729,606,1001,1
730,484,1000,1
731,269,1001,1
732,17,1001,1
733,86,1001,1
734,250,1000,1
735,398,1001,1
736,826,1001,1
737,955,1000,1
738,206,1001,1
739,86,1001,1
740,892,1000,1
741,56,1001,1
742,362,1000,1
743,401,1000,1
744,700,1001,1
745,584,1000,1
746,534,1000,1
747,576,1000,1
748,372,1000,1
749,488,1001,1
750,167,1000,1
751,865,1000,1
752,21,1000,1
753,495,1000,1
754,312,1001,1
755,927,1001,1
756,887,1000,1
757,89,1001,1
758,697,1000,1
759,837,1000,1
760,647,1001,1
761,151,1001,1
762,724,1000,1
763,77,1000,1
764,817,1001,1
765,647,1000,1
766,543,1000,1
767,421,1001,1
768,880,1000,1
769,239,1000,1
770,989,1001,1
771,300,1001,1
772,583,1000,1
773,454,1000,1
774,863,1001,1
775,368,1001,1
776,187,1001,1
777,306,1001,1
778,426,1000,1
779,441,1001,1
780,827,1000,1
781,22,1000,1
782,944,1001,1
783,270,1001,1
784,200,1001,1
785,956,1000,1
786,688,1001,1
787,319,1001,1
788,546,1001,1
789,274,1000,1
790,246,1000,1
791,637,1000,1
792,499,1001,1
793,759,1000,1
794,41,1000,1
795,431,1000,1
796,846,1001,1
797,13,1000,1
798,954,1001,1
799,122,1000,1
800,977,1001,1
801,252,1000,1
802,152,1000,1
803,20,1000,1
804,433,1000,1
805,90,1001,1
806,218,1000,1
807,52,1001,1
808,654,1000,1
809,93,1001,1
810,108,1001,1
811,463,1001,1
812,565,1000,1
813,305,1000,1
814,579,1000,1
815,10,1000,1
816,752,1001,1
817,705,1000,1
818,102,1001,1
819,864,1000,1
820,580,1001,1
821,458,1001,1
822,225,1000,1
823,35,1000,1
824,907,1000,1
825,683,1000,1
826,655,1000,1
827,228,1000,1
828,969,1001,1
829,930,1001,1
830,919,1001,1
831,795,1000,1
832,994,1001,1
833,84,1001,1
834,615,1001,1
835,453,1000,1
836,985,1001,1
837,502,1001,1
838,153,1000,1
839,197,1001,1
840,584,1000,1
841,903,1000,1
842,891,1000,1
843,847,1000,1
844,527,1000,1
845,178,1000,1
846,529,1000,1
847,666,1000,1
848,985,1000,1
849,429,1001,1
850,135,1001,1
851,386,1000,1
852,798,1000,1
853,781,1000,1
854,582,1001,1
855,40,1001,1
856,4,1000,1
857,105,1001,1
858,791,1001,1
859,417,1001,1
860,347,1001,1
861,810,1000,1
862,924,1001,1
863,261,1001,1
864,442,1001,1
865,571,1000,1
866,70,1000,1
867,958,1001,1
868,443,1000,1
869,139,1001,1
870,147,1001,1
871,725,1001,1
872,660,1000,1
873,618,1000,1
874,331,1001,1
875,713,1000,1
876,410,1000,1
877,446,1000,1
878,350,1001,1
879,480,1000,1
880,852,1000,1
881,387,1001,1
882,423,1000,1
883,803,1001,1
884,899,1000,1
885,288,1000,1
886,242,1001,1
887,493,1001,1
888,351,1001,1
889,445,1000,1
890,763,1000,1
891,573,1000,1
892,601,1000,1
893,653,1001,1
894,938,1001,1
895,464,1000,1
896,322,1001,1
897,280,1000,1
898,681,1001,1
899,606,1000,1
900,447,1001,1
901,951,1000,1
902,924,1000,1
903,197,1000,1
904,454,1001,1
905,434,1001,1
906,278,1000,1
907,920,1001,1
908,233,1001,1
909,831,1000,1
910,580,1000,1
911,944,1000,1
912,854,1000,1
913,874,1000,1
914,186,1001,1
915,779,1001,1
916,296,1000,1
917,879,1000,1
918,42,1001,1
919,227,1001,1
920,702,1001,1
921,694,1000,1
922,147,1000,1
923,897,1001,1
924,531,1000,1
925,673,1001,1
926,813,1000,1
927,998,1001,1
928,124,1000,1
929,145,1000,1
930,221,1000,1
931,944,1001,1
932,752,1000,1
933,886,1000,1
934,280,1001,1
935,447,1000,1
936,197,1001,1
937,60,1001,1
938,683,1000,1
939,333,1001,1
940,243,1001,1
941,118,1000,1
942,274,1000,1
943,766,1000,1
944,161,1000,1
945,917,1000,1
946,688,1001,1
947,89,1000,1
948,184,1001,1
949,931,1000,1
950,797,1000,1
951,428,1000,1
952,569,1001,1
953,832,1000,1
954,839,1000,1
955,662,1000,1
956,129,1001,1
957,291,1001,1
958,99,1000,1
959,278,1000,1
960,349,1000,1
961,793,1000,1
962,278,1001,1
963,851,1001,1
964,452,1000,1
965,68,1000,1
966,374,1001,1
967,756,1001,1
968,35,1000,1
969,900,1000,1
970,74,1000,1
971,586,1000,1
972,701,1001,1
973,864,1000,1
974,239,1001,1
975,138,1000,1
976,747,1000,1
977,142,1000,1
978,647,1000,1
979,866,1001,1
980,86,1000,1
981,54,1001,1
982,161,1000,1
983,677,1000,1
984,147,1000,1
985,222,1000,1
986,414,1000,1
987,245,1001,1
988,579,1000,1
989,548,1001,1
990,980,1000,1
991,785,1000,1
992,126,1000,1
993,428,1000,1
994,617,1001,1
995,597,1001,1
996,801,1001,1
997,231,1001,1
998,144,1000,1
999,31,1001,1
1000,922,1001,1
